230
191
198
464
155
237
408
357
216
324
467
167
272
473
14
33
437
480
130
111
18
313
111
200
342
332
305
367
25
55
129
217
147
205
293
129
109
205
400
126
291
188
30
493
284
355
56
385
480
267
200
246
191
448
298
121
226
83
426
159
382
423
332
277
231
107
497
38
62
256
59
366
127
6
363
436
448
215
247
466
275
326
139
214
389
474
220
53
315
133
474
248
426
377
485
225
470
105
293
374
24
431
158
184
203
445
283
477
404
304
96
236
297
57
206
329
458
431
270
312
389
457
388
130
283
355
99
114
61
291
414
86
404
304
137
105
405
328
122
55
187
446
350
499
497
317
374
171
332
199
203
93
8
255
160
263
131
67
51
36
442
481
374
117
203
61
371
497
395
428
262
411
159
37
354
206
269
380
470
50
76
462
212
473
136
112
335
133
12
328
456
34
261
216
280
408
279
421
368
143
47
442
142
281
270
313
119
189
283
248
71
36
78
280
156
408
53
138
205
224
56
294
27
498
180
187
482
163
317
444
73
440
